c Created with the Wolfram Language : www.wolfram.com
c 
p edge 70 253
e 1 5
e 3 7
e 5 8
e 7 8
e 7 9
e 9 10
e 1 11
e 3 11
e 8 13
e 8 14
e 13 15
e 12 16
e 5 17
e 13 17
e 2 18
e 14 18
e 6 20
e 7 20
e 13 20
e 4 21
e 6 21
e 17 21
e 9 24
e 2 25
e 8 25
e 9 26
e 19 26
e 23 26
e 15 27
e 18 27
e 4 28
e 1 29
e 2 29
e 7 29
e 17 29
e 19 29
e 14 30
e 15 30
e 16 31
e 17 32
e 25 32
e 1 33
e 10 33
e 31 33
e 2 34
e 4 34
e 5 34
e 8 34
e 28 34
e 8 35
e 9 35
e 12 35
e 14 35
e 23 35
e 32 35
e 6 36
e 14 36
e 24 36
e 25 36
e 30 37
e 3 38
e 5 38
e 20 38
e 25 38
e 31 38
e 33 38
e 2 39
e 6 39
e 7 39
e 24 39
e 30 39
e 5 40
e 11 40
e 15 40
e 17 40
e 19 40
e 23 40
e 28 40
e 30 40
e 36 40
e 5 41
e 10 41
e 11 41
e 16 41
e 31 41
e 35 41
e 1 42
e 9 42
e 33 42
e 40 42
e 29 43
e 32 43
e 9 44
e 20 44
e 25 44
e 33 44
e 41 44
e 19 45
e 31 45
e 32 45
e 1 46
e 17 46
e 30 46
e 34 46
e 13 47
e 15 47
e 17 47
e 20 47
e 21 48
e 44 48
e 3 49
e 22 49
e 30 49
e 44 49
e 3 50
e 9 50
e 12 50
e 15 50
e 18 50
e 24 50
e 41 50
e 44 50
e 11 51
e 18 51
e 19 51
e 33 51
e 40 51
e 46 51
e 50 51
e 21 52
e 24 52
e 30 52
e 2 53
e 3 53
e 8 53
e 9 53
e 28 53
e 33 53
e 37 53
e 39 53
e 6 54
e 8 54
e 26 54
e 27 54
e 33 54
e 45 54
e 46 54
e 47 54
e 51 54
e 8 55
e 10 55
e 13 55
e 20 55
e 34 55
e 5 56
e 11 56
e 14 56
e 21 56
e 23 56
e 48 56
e 5 57
e 6 57
e 12 57
e 30 57
e 47 57
e 52 57
e 4 58
e 6 58
e 7 58
e 12 58
e 14 58
e 16 58
e 45 58
e 50 58
e 32 59
e 40 59
e 49 59
e 8 60
e 12 60
e 14 60
e 20 60
e 28 60
e 39 60
e 2 61
e 21 61
e 23 61
e 27 61
e 30 61
e 60 61
e 4 62
e 14 62
e 24 62
e 39 62
e 43 62
e 48 62
e 57 62
e 44 63
e 56 63
e 57 63
e 5 64
e 6 64
e 11 64
e 21 64
e 23 64
e 32 64
e 37 64
e 40 64
e 43 64
e 49 64
e 4 65
e 15 65
e 31 65
e 44 65
e 45 65
e 46 65
e 62 65
e 6 66
e 29 66
e 32 66
e 36 66
e 40 66
e 15 67
e 21 67
e 22 67
e 38 67
e 40 67
e 60 67
e 62 67
e 4 68
e 5 68
e 12 68
e 22 68
e 33 68
e 36 68
e 54 68
e 17 69
e 19 69
e 21 69
e 25 69
e 26 69
e 29 69
e 33 69
e 61 69
e 8 70
e 12 70
e 17 70
e 18 70
e 23 70
e 27 70
e 47 70
e 51 70
e 60 70
e 68 70
